; benchmark generated from python API
(set-info :status unknown)
(declare-datatypes ((IntState 0)) (((Mk1 (val1 Int)) (Mk2 (val2 Int)))))
 (declare-fun c_main_~y~0 () Int)
(declare-fun c_main_~x~0 () Int)
(assert
 (let (($x74 (exists ((|v_main_#t~nondet1_6_st| IntState) (val!111 Int) )(exists ((|v_main_#t~nondet1_7_st| IntState) (val!112 Int) )(exists ((|v_main_#t~nondet1_5_st| IntState) (val!113 Int) )(let ((?x167 (+ (* 2 (val2 |v_main_#t~nondet1_6_st|)) (* 2 (val2 |v_main_#t~nondet1_7_st|)) (* 2 (val2 |v_main_#t~nondet1_5_st|)) 1)))
 (let (($x112 (not (= |v_main_#t~nondet1_5_st| (Mk1 val!113)))))
 (let (($x50 (not (= |v_main_#t~nondet1_7_st| (Mk1 val!112)))))
 (let (($x13 (not (= |v_main_#t~nondet1_6_st| (Mk1 val!111)))))
 (and $x13 $x50 $x112 (= c_main_~y~0 ?x167)))))))
 )
 )
 ))
 (let (($x214 (exists ((|v_main_#t~nondet0_7_st| IntState) (val!108 Int) )(exists ((|v_main_#t~nondet0_5_st| IntState) (val!109 Int) )(exists ((|v_main_#t~nondet0_6_st| IntState) (val!110 Int) )(let ((?x167 (+ (* 2 (val2 |v_main_#t~nondet0_7_st|)) (* 2 (val2 |v_main_#t~nondet0_5_st|)) (* 2 (val2 |v_main_#t~nondet0_6_st|)) 1)))
 (let (($x112 (not (= |v_main_#t~nondet0_6_st| (Mk1 val!110)))))
 (let (($x50 (not (= |v_main_#t~nondet0_5_st| (Mk1 val!109)))))
 (let (($x13 (not (= |v_main_#t~nondet0_7_st| (Mk1 val!108)))))
 (and $x13 $x50 $x112 (= ?x167 c_main_~x~0)))))))
 )
 )
 ))
 (let (($x59 (exists ((|v_main_#t~nondet1_6| Int) )(exists ((|v_main_#t~nondet1_5| Int) )(let ((?x86 (* 2 |v_main_#t~nondet1_5|)))
 (let ((?x235 (* 2 |v_main_#t~nondet1_6|)))
 (let ((?x12 (+ ?x235 ?x86 1)))
 (= ?x12 c_main_~y~0)))))
 )
 ))
 (let (($x107 (exists ((|v_main_#t~nondet0_5| Int) )(exists ((|v_main_#t~nondet0_6| Int) )(let ((?x86 (* 2 |v_main_#t~nondet0_6|)))
 (let ((?x235 (* 2 |v_main_#t~nondet0_5|)))
 (let ((?x12 (+ ?x235 ?x86 1)))
 (= ?x12 c_main_~x~0)))))
 )
 ))
 (and (and $x107 $x59) (not (and $x214 $x74))))))))
(check-sat)
